N = 9;
H = 6;
T = 2;

avail = array3d(1..N, 1..H, 1..T, [10, 1, 0, 8, 2, 6, 7, 9, 3, 5, 10, 9, 9, 8, 2, 2, 2, 5, 6, 10, 1, 2, 4, 8, 3, 0, 7, 9, 8, 10, 7, 2, 0, 7, 4, 5, 5, 6, 10, 4, 1, 0, 5, 7, 3, 4, 7, 8, 4, 6, 4, 2, 10, 8, 0, 6, 1, 1, 3, 6, 3, 3, 4, 5, 1, 9, 7, 2, 7, 4, 5, 9, 8, 2, 6, 3, 1, 10, 9, 6, 8, 4, 5, 2, 7, 6, 4, 1, 3, 4, 5, 7, 10, 1, 1, 3, 4, 7, 1, 6, 10, 1, 4, 1, 7, 6, 10, 1]);

r = array2d(1..H, 1..T, [4, 1, 2, 3, 4, 2, 1, 3, 0, 2, 2, 2]);
